
******************************************************************************
This program contains Ipopt, a library for large-scale nonlinear optimization.
 Ipopt is released as open source code under the Eclipse Public License (EPL).
         For more information visit http://projects.coin-or.org/Ipopt

This version of Ipopt was compiled from source code available at
    https://github.com/IDAES/Ipopt as part of the Institute for the Design of
    Advanced Energy Systems Process Systems Engineering Framework (IDAES PSE
    Framework) Copyright (c) 2018-2019. See https://github.com/IDAES/idaes-pse.

This version of Ipopt was compiled using HSL, a collection of Fortran codes
    for large-scale scientific computation.  All technical papers, sales and
    publicity material resulting from use of the HSL codes within IPOPT must
    contain the following acknowledgement:
        HSL, a collection of Fortran codes for large-scale scientific
        computation. See http://www.hsl.rl.ac.uk.
******************************************************************************

This is Ipopt version 3.13.2, running with linear solver ma27.

Number of nonzeros in equality constraint Jacobian...:      808
Number of nonzeros in inequality constraint Jacobian.:        0
Number of nonzeros in Lagrangian Hessian.............:      702

Total number of variables............................:      351
                     variables with only lower bounds:      108
                variables with lower and upper bounds:      189
                     variables with only upper bounds:        0
Total number of equality constraints.................:      350
Total number of inequality constraints...............:        0
        inequality constraints with only lower bounds:        0
   inequality constraints with lower and upper bounds:        0
        inequality constraints with only upper bounds:        0

iter    objective    inf_pr   inf_du lg(mu)  ||d||  lg(rg) alpha_du alpha_pr  ls
   0  0.0000000e+00 7.01e-01 8.77e-15  -1.0 0.00e+00    -  0.00e+00 0.00e+00   0
   1  1.4791184e+00 6.37e-01 1.55e+05  -1.0 1.26e+05    -  5.42e-01 6.50e-01h  1
   2  1.5346402e+00 6.09e-01 1.49e+05  -1.0 4.00e+04    -  8.48e-01 3.59e-02h  1
   3  1.6287154e+00 5.75e-01 1.40e+05  -1.0 1.84e+05    -  8.07e-01 5.56e-02h  1
   4  1.1769560e+01 3.75e-01 1.34e+04  -1.0 1.76e+05    -  8.15e-01 9.90e-01h  1
   5  1.3874432e+01 4.16e-02 1.18e+03  -1.0 1.94e+04    -  6.23e-01 9.90e-01h  1
   6  1.3916922e+01 9.86e-04 3.07e+01  -1.0 3.71e+02    -  9.90e-01 9.90e-01h  1
   7  1.3952868e+01 1.83e-05 1.53e+02  -1.0 3.08e+02    -  9.90e-01 9.90e-01h  1
   8  1.3916526e+01 2.64e-05 4.21e+06  -3.8 2.85e+03    -  9.99e-01 1.08e-01f  1
   9  1.3916628e+01 5.73e-09 1.43e+03  -3.8 8.66e-01    -  1.00e+00 1.00e+00h  1
iter    objective    inf_pr   inf_du lg(mu)  ||d||  lg(rg) alpha_du alpha_pr  ls
  10  1.3916597e+01 2.96e-11 5.30e+06  -3.8 2.67e-01    -  1.00e+00 1.00e+00h  1
In iteration 10, 27 Slacks too small, adjusting variable bounds
  11  1.3916597e+01 1.87e-10 3.52e+10  -3.8 5.03e-05    -  1.00e+00 1.00e+00h  1
  12  1.3916597e+01 1.21e-10 1.29e-02  -3.8 4.21e-08    -  1.00e+00 1.00e+00h  1
  13  1.3916446e+01 2.75e-11 5.06e+07  -9.0 1.28e+00    -  1.00e+00 9.99e-01F  1
  14  1.3916446e+01 1.02e-10 9.43e-09  -9.0 7.72e-06    -  1.00e+00 1.00e+00h  1

Number of Iterations....: 14

                                   (scaled)                 (unscaled)
Objective...............:   1.3916446249886640e+01    1.3916446249886640e+01
Dual infeasibility......:   9.4296410679817200e-09    9.4296410679817200e-09
Constraint violation....:   1.0173684117376069e-10    1.0173684117376069e-10
Complementarity.........:   9.0909090909090920e-10    9.0909090909090920e-10
Overall NLP error.......:   1.0173684117376069e-10    9.4296410679817200e-09


Number of objective function evaluations             = 16
Number of objective gradient evaluations             = 15
Number of equality constraint evaluations            = 16
Number of inequality constraint evaluations          = 0
Number of equality constraint Jacobian evaluations   = 15
Number of inequality constraint Jacobian evaluations = 0
Number of Lagrangian Hessian evaluations             = 14
Total CPU secs in IPOPT (w/o function evaluations)   =      0.035
Total CPU secs in NLP function evaluations           =      0.308

EXIT: Optimal Solution Found.
